43 15
44 40
5 11
2 17
43 20
18 41
4 16
15 15
32 5
29 8
28 35
19 2
39 15
50 24
27 29
15 16
28 47
16 41
23 40
31 38
45 23
39 35
37 6
12 2
48 26
23 34
34 19
24 24
15 28
14 10
2 50
23 50
32 11
34 10
40 10
8 15
19 42
3 17
29 18
9 28
12 14
9 41
4 45
35 39
17 3
28 4
14 24
45 31
36 16
20 32
13 42
16 13
35 35
46 5
30 35
28 46
14 45
28 18
27 13
50 24
44 37
11 38
21 47
21 46
11 31
28 45
17 23
36 13
49 43
15 5
18 11
23 45
22 4
9 8
48 32
30 22
8 49
2 2
24 11
31 41
43 41
44 9
17 33
15 17
26 29
38 30
13 15
20 13
8 13
50 27
33 19
40 43
23 34
32 37
10 15
11 46
18 38
35 7
7 15
19 12
